
%FILE DATA:	Soccer Computational Problem for MiniZinc Models	%
%AUTHOR:	Jack Wall	%
%CONTACT:  	116397063@umail.ucc.ie			%
%LAST UPDATE:	03/12/2020, 11:03:48						%
%DESCRIPTION: 	140 games played with 42 games left				%


n=14; %number of teams

%Games to play
games=[|13,1|12,10|6,1|8,14|8,12|4,6|7,9|3,6|11,5|10,11|6,11|10,8|10,1|11,14|14,3|6,2|1,5|5,7|9,4|13,8|1,8|9,5|8,7|10,14|7,4|2,6|13,4|4,1|1,2|11,13|12,13|3,11|7,14|6,7|2,8|2,9|9,3|9,6|4,13|1,3|7,13|7,1|];

%Initial points
iPoints=[35,17,38,33,22,20,20,30,27,25,23,34,20,35];

%POSITION CONSTRAINTS
% [|teamID, operator, position|...]
% operators index:
%  1 for =  operator
%  2 for >  operator
%  3 for >= operator
%  4 for <  operator
%  5 for <= operator
positionConstraints=[|1,4,2|3,1,2|14,5,3|4,2,3|12,1,5|];